(set-info :smt-lib-version 2.6)
(set-logic QF_NIA)
(set-info :source |
Generated by: Cristina Borralleras, Daniel Larraz, Albert Oliveras, Enric Rodriguez-Carbonell, Albert Rubio
Generated on: 2017-04-27
Generator: VeryMax
Application: Termination proving
Target solver: barcelogic
|)
(set-info :license "https://creativecommons.org/licenses/by/4.0/")
(set-info :category "industrial")
(set-info :status sat)
(declare-fun Nl12arg11 () Int)
(declare-fun Nl12arg21 () Int)
(declare-fun Nl12arg31 () Int)
(declare-fun Nl12arg41 () Int)
(declare-fun Nl12arg51 () Int)
(declare-fun Nl12arg12 () Int)
(declare-fun Nl12arg22 () Int)
(declare-fun Nl12arg32 () Int)
(declare-fun Nl12arg42 () Int)
(declare-fun Nl12arg52 () Int)
(declare-fun Nl12arg13 () Int)
(declare-fun Nl12arg23 () Int)
(declare-fun Nl12arg33 () Int)
(declare-fun Nl12arg43 () Int)
(declare-fun Nl12arg53 () Int)
(declare-fun lam0n0 () Int)
(declare-fun lam0n1 () Int)
(declare-fun lam0n2 () Int)
(declare-fun lam0n3 () Int)
(declare-fun lam0n4 () Int)
(declare-fun lam0n5 () Int)
(declare-fun lam0n6 () Int)
(declare-fun lam0n7 () Int)
(declare-fun lam0n8 () Int)
(declare-fun UndefCntr0_CT () Int)
(declare-fun Nl12CT1 () Int)
(declare-fun Nl12CT2 () Int)
(declare-fun Nl12CT3 () Int)
(declare-fun UndefCntr0_arg1 () Int)
(declare-fun UndefCntr0_arg2 () Int)
(declare-fun UndefCntr0_arg3 () Int)
(declare-fun UndefCntr0_arg4 () Int)
(declare-fun UndefCntr0_arg5 () Int)
(declare-fun UndefCntr0_undef115 () Int)
(declare-fun UndefCntr0_undef116 () Int)
(declare-fun UndefCntr0_undef117 () Int)
(declare-fun UndefCntr0_undef118 () Int)
(declare-fun UndefCntr0_undef119 () Int)
(declare-fun lam1n0 () Int)
(declare-fun lam1n1 () Int)
(declare-fun lam1n2 () Int)
(declare-fun lam1n3 () Int)
(declare-fun lam1n4 () Int)
(declare-fun lam1n5 () Int)
(declare-fun lam1n6 () Int)
(declare-fun lam1n7 () Int)
(declare-fun lam1n8 () Int)
(declare-fun lam2n0 () Int)
(declare-fun lam2n1 () Int)
(declare-fun lam2n2 () Int)
(declare-fun lam2n3 () Int)
(declare-fun lam2n4 () Int)
(declare-fun lam2n5 () Int)
(declare-fun lam2n6 () Int)
(declare-fun lam2n7 () Int)
(declare-fun lam2n8 () Int)
(declare-fun lam3n0 () Int)
(declare-fun lam3n1 () Int)
(declare-fun lam3n2 () Int)
(declare-fun lam3n3 () Int)
(declare-fun lam3n4 () Int)
(declare-fun lam3n5 () Int)
(declare-fun lam3n6 () Int)
(declare-fun lam3n7 () Int)
(declare-fun lam3n8 () Int)
(declare-fun lam4n0 () Int)
(declare-fun lam4n1 () Int)
(declare-fun lam4n2 () Int)
(declare-fun lam4n3 () Int)
(declare-fun lam4n4 () Int)
(declare-fun lam4n5 () Int)
(declare-fun lam5n0 () Int)
(declare-fun lam5n1 () Int)
(declare-fun lam5n2 () Int)
(declare-fun lam5n3 () Int)
(declare-fun lam5n4 () Int)
(declare-fun lam5n5 () Int)
(declare-fun lam6n0 () Int)
(declare-fun lam6n1 () Int)
(declare-fun lam6n2 () Int)
(declare-fun lam6n3 () Int)
(declare-fun lam6n4 () Int)
(declare-fun lam6n5 () Int)
(declare-fun lam7n0 () Int)
(declare-fun lam7n1 () Int)
(declare-fun lam7n2 () Int)
(declare-fun lam7n3 () Int)
(declare-fun lam7n4 () Int)
(declare-fun lam7n5 () Int)
(declare-fun lam7n6 () Int)
(declare-fun lam7n7 () Int)
(declare-fun lam8n0 () Int)
(declare-fun lam8n1 () Int)
(declare-fun lam8n2 () Int)
(declare-fun lam8n3 () Int)
(declare-fun lam8n4 () Int)
(declare-fun lam8n5 () Int)
(declare-fun lam8n6 () Int)
(declare-fun lam8n7 () Int)
(declare-fun lam9n0 () Int)
(declare-fun lam9n1 () Int)
(declare-fun lam9n2 () Int)
(declare-fun lam9n3 () Int)
(declare-fun lam9n4 () Int)
(declare-fun lam9n5 () Int)
(declare-fun lam9n6 () Int)
(declare-fun lam9n7 () Int)
(declare-fun lam10n0 () Int)
(declare-fun lam10n1 () Int)
(declare-fun lam10n2 () Int)
(declare-fun lam10n3 () Int)
(declare-fun lam10n4 () Int)
(declare-fun lam10n5 () Int)
(declare-fun lam10n6 () Int)
(declare-fun lam10n7 () Int)
(declare-fun lam10n8 () Int)
(declare-fun lam11n0 () Int)
(declare-fun lam11n1 () Int)
(declare-fun lam11n2 () Int)
(declare-fun lam11n3 () Int)
(declare-fun lam11n4 () Int)
(declare-fun lam11n5 () Int)
(declare-fun lam11n6 () Int)
(declare-fun lam11n7 () Int)
(declare-fun lam11n8 () Int)
(declare-fun lam12n0 () Int)
(declare-fun lam12n1 () Int)
(declare-fun lam12n2 () Int)
(declare-fun lam12n3 () Int)
(declare-fun lam12n4 () Int)
(declare-fun lam12n5 () Int)
(declare-fun lam12n6 () Int)
(declare-fun lam12n7 () Int)
(declare-fun lam12n8 () Int)
(declare-fun lam13n0 () Int)
(declare-fun lam13n1 () Int)
(declare-fun lam13n2 () Int)
(declare-fun lam13n3 () Int)
(declare-fun lam13n4 () Int)
(declare-fun lam13n5 () Int)
(declare-fun lam13n6 () Int)
(declare-fun lam13n7 () Int)
(declare-fun lam13n8 () Int)
(declare-fun lam14n0 () Int)
(declare-fun lam14n1 () Int)
(declare-fun lam14n2 () Int)
(declare-fun lam14n3 () Int)
(declare-fun lam14n4 () Int)
(declare-fun lam14n5 () Int)
(declare-fun lam14n6 () Int)
(declare-fun lam14n7 () Int)
(declare-fun lam14n8 () Int)
(declare-fun lam15n0 () Int)
(declare-fun lam15n1 () Int)
(declare-fun lam15n2 () Int)
(declare-fun lam15n3 () Int)
(declare-fun lam15n4 () Int)
(declare-fun lam15n5 () Int)
(declare-fun lam15n6 () Int)
(declare-fun lam15n7 () Int)
(declare-fun lam15n8 () Int)
(declare-fun lam16n0 () Int)
(declare-fun lam16n1 () Int)
(declare-fun lam16n2 () Int)
(declare-fun lam16n3 () Int)
(declare-fun lam16n4 () Int)
(declare-fun lam16n5 () Int)
(declare-fun lam16n6 () Int)
(declare-fun lam16n7 () Int)
(declare-fun lam17n0 () Int)
(declare-fun lam17n1 () Int)
(declare-fun lam17n2 () Int)
(declare-fun lam17n3 () Int)
(declare-fun lam17n4 () Int)
(declare-fun lam17n5 () Int)
(declare-fun lam17n6 () Int)
(declare-fun lam17n7 () Int)
(declare-fun lam18n0 () Int)
(declare-fun lam18n1 () Int)
(declare-fun lam18n2 () Int)
(declare-fun lam18n3 () Int)
(declare-fun lam18n4 () Int)
(declare-fun lam18n5 () Int)
(declare-fun lam18n6 () Int)
(declare-fun lam18n7 () Int)
(declare-fun undef6 () Int)
(declare-fun undef26 () Int)
(declare-fun undef110 () Int)
(declare-fun undef111 () Int)
(declare-fun undef7 () Int)
(declare-fun undef113 () Int)
(declare-fun undef114 () Int)
(declare-fun undef36 () Int)
(declare-fun undef21 () Int)
(declare-fun undef22 () Int)
(declare-fun undef11 () Int)
(declare-fun undef13 () Int)
(declare-fun undef12 () Int)
(declare-fun undef14 () Int)
(declare-fun undef31 () Int)
(declare-fun undef32 () Int)
(declare-fun undef105 () Int)
(declare-fun undef106 () Int)
(declare-fun undef108 () Int)
(declare-fun undef109 () Int)
(declare-fun FV_arg1_1 () Int)
(declare-fun FV_arg2_1 () Int)
(declare-fun FV_arg3_1 () Int)
(declare-fun FV_arg4_1 () Int)
(declare-fun FV_arg5_1 () Int)
(declare-fun FV_undef115_0 () Int)
(declare-fun FV_undef116_0 () Int)
(declare-fun FV_arg1_0 () Int)
(declare-fun FV_arg2_0 () Int)
(declare-fun FV_arg3_0 () Int)
(declare-fun FV_arg4_0 () Int)
(declare-fun FV_arg5_0 () Int)
(declare-fun FV_undef117_0 () Int)
(declare-fun FV_undef118_0 () Int)
(declare-fun FV_undef119_0 () Int)
(declare-fun lam19n0 () Int)
(declare-fun lam19n1 () Int)
(declare-fun lam19n2 () Int)
(declare-fun lam19n3 () Int)
(declare-fun lam19n4 () Int)
(declare-fun lam19n5 () Int)
(declare-fun lam20n0 () Int)
(declare-fun lam20n1 () Int)
(declare-fun lam20n2 () Int)
(declare-fun lam20n3 () Int)
(declare-fun lam20n4 () Int)
(declare-fun FV_arg1_2 () Int)
(declare-fun FV_arg2_2 () Int)
(declare-fun FV_arg3_2 () Int)
(declare-fun FV_arg4_2 () Int)
(declare-fun FV_arg5_2 () Int)
(declare-fun FV_undef116_2 () Int)
(declare-fun FV_undef115_2 () Int)
(assert ( and ( <= ( - 1 ) Nl12arg11 ) ( <= Nl12arg11 1 ) ( <= ( - 1 ) Nl12arg21 ) ( <= Nl12arg21 1 ) ( <= ( - 1 ) Nl12arg31 ) ( <= Nl12arg31 1 ) ( <= ( - 1 ) Nl12arg41 ) ( <= Nl12arg41 1 ) ( <= ( - 1 ) Nl12arg51 ) ( <= Nl12arg51 1 ) ( <= ( - 1 ) Nl12arg12 ) ( <= Nl12arg12 1 ) ( <= ( - 1 ) Nl12arg22 ) ( <= Nl12arg22 1 ) ( <= ( - 1 ) Nl12arg32 ) ( <= Nl12arg32 1 ) ( <= ( - 1 ) Nl12arg42 ) ( <= Nl12arg42 1 ) ( <= ( - 1 ) Nl12arg52 ) ( <= Nl12arg52 1 ) ( <= ( - 1 ) Nl12arg13 ) ( <= Nl12arg13 1 ) ( <= ( - 1 ) Nl12arg23 ) ( <= Nl12arg23 1 ) ( <= ( - 1 ) Nl12arg33 ) ( <= Nl12arg33 1 ) ( <= ( - 1 ) Nl12arg43 ) ( <= Nl12arg43 1 ) ( <= ( - 1 ) Nl12arg53 ) ( <= Nl12arg53 1 ) ))
(assert ( or ( and ( >= lam0n0 0 ) ( >= lam0n1 0 ) ( >= lam0n2 0 ) ( >= lam0n3 0 ) ( >= lam0n4 0 ) ( >= lam0n5 0 ) ( >= lam0n6 0 ) ( >= lam0n7 0 ) ( >= lam0n8 0 ) ( > ( + ( * 4 lam0n0 ) ( * 1 lam0n1 ) ( * 2 lam0n2 ) ( * 11 lam0n4 ) ( * UndefCntr0_CT lam0n5 ) ( * Nl12CT1 lam0n6 ) ( * Nl12CT2 lam0n7 ) ( * Nl12CT3 lam0n8 ) ( - 1 ) ) 0 ) ( = ( + ( * ( - 1 ) lam0n0 ) ( * ( - 1 ) lam0n2 ) ( * UndefCntr0_arg1 lam0n5 ) ( * Nl12arg11 lam0n6 ) ( * Nl12arg12 lam0n7 ) ( * Nl12arg13 lam0n8 ) ) 0 ) ( = ( + ( * ( - 1 ) lam0n1 ) ( * UndefCntr0_arg2 lam0n5 ) ( * Nl12arg21 lam0n6 ) ( * Nl12arg22 lam0n7 ) ( * Nl12arg23 lam0n8 ) ) 0 ) ( = ( + ( * 1 lam0n2 ) ( * UndefCntr0_arg3 lam0n5 ) ( * Nl12arg31 lam0n6 ) ( * Nl12arg32 lam0n7 ) ( * Nl12arg33 lam0n8 ) ) 0 ) ( = ( + ( * UndefCntr0_arg4 lam0n5 ) ( * Nl12arg41 lam0n6 ) ( * Nl12arg42 lam0n7 ) ( * Nl12arg43 lam0n8 ) ) 0 ) ( = ( + ( * UndefCntr0_arg5 lam0n5 ) ( * Nl12arg51 lam0n6 ) ( * Nl12arg52 lam0n7 ) ( * Nl12arg53 lam0n8 ) ) 0 ) ( = ( + ( * ( - 1 ) lam0n4 ) ( * UndefCntr0_undef115 lam0n5 ) ) 0 ) ( = ( + ( * ( - 1 ) lam0n3 ) ( * UndefCntr0_undef116 lam0n5 ) ) 0 ) ( = ( * UndefCntr0_undef117 lam0n5 ) 0 ) ( = ( * UndefCntr0_undef118 lam0n5 ) 0 ) ( = ( * UndefCntr0_undef119 lam0n5 ) 0 ) ) ( and ( >= lam1n0 0 ) ( >= lam1n1 0 ) ( >= lam1n2 0 ) ( >= lam1n3 0 ) ( >= lam1n4 0 ) ( >= lam1n5 0 ) ( >= lam1n6 0 ) ( >= lam1n7 0 ) ( >= lam1n8 0 ) ( > ( + ( * 4 lam1n0 ) ( * 1 lam1n1 ) ( * 2 lam1n2 ) ( * 11 lam1n4 ) ( * UndefCntr0_CT lam1n5 ) ( * Nl12CT1 lam1n6 ) ( * Nl12CT2 lam1n7 ) ( * Nl12CT3 lam1n8 ) ( - 1 ( + ( + ( + ( + ( + Nl12CT1 ( * Nl12arg11 0 ) ) ( * Nl12arg21 0 ) ) ( * Nl12arg31 0 ) ) ( * Nl12arg41 0 ) ) ( * Nl12arg51 0 ) ) ) ) 0 ) ( = ( + ( * ( - 1 ) lam1n0 ) ( * ( - 1 ) lam1n2 ) ( * UndefCntr0_arg1 lam1n5 ) ( * Nl12arg11 lam1n6 ) ( * Nl12arg12 lam1n7 ) ( * Nl12arg13 lam1n8 ) ) 0 ) ( = ( + ( * ( - 1 ) lam1n1 ) ( * UndefCntr0_arg2 lam1n5 ) ( * Nl12arg21 lam1n6 ) ( * Nl12arg22 lam1n7 ) ( * Nl12arg23 lam1n8 ) ) 0 ) ( = ( + ( * 1 lam1n2 ) ( * UndefCntr0_arg3 lam1n5 ) ( * Nl12arg31 lam1n6 ) ( * Nl12arg32 lam1n7 ) ( * Nl12arg33 lam1n8 ) ) 0 ) ( = ( + ( * UndefCntr0_arg4 lam1n5 ) ( * Nl12arg41 lam1n6 ) ( * Nl12arg42 lam1n7 ) ( * Nl12arg43 lam1n8 ) ) 0 ) ( = ( + ( * UndefCntr0_arg5 lam1n5 ) ( * Nl12arg51 lam1n6 ) ( * Nl12arg52 lam1n7 ) ( * Nl12arg53 lam1n8 ) ) 0 ) ( = ( + ( * ( - 1 ) lam1n4 ) ( * UndefCntr0_undef115 lam1n5 ) ( - ( + 0 ( * Nl12arg11 1 ) ) ) ) 0 ) ( = ( + ( * ( - 1 ) lam1n3 ) ( * UndefCntr0_undef116 lam1n5 ) ( - ( + 0 ( * Nl12arg21 1 ) ) ) ) 0 ) ( = ( + ( * UndefCntr0_undef117 lam1n5 ) ( - ( + 0 ( * Nl12arg31 1 ) ) ) ) 0 ) ( = ( + ( * UndefCntr0_undef118 lam1n5 ) ( - ( + 0 ( * Nl12arg41 1 ) ) ) ) 0 ) ( = ( + ( * UndefCntr0_undef119 lam1n5 ) ( - ( + 0 ( * Nl12arg51 1 ) ) ) ) 0 ) ) ))
(assert ( or ( and ( >= lam0n0 0 ) ( >= lam0n1 0 ) ( >= lam0n2 0 ) ( >= lam0n3 0 ) ( >= lam0n4 0 ) ( >= lam0n5 0 ) ( >= lam0n6 0 ) ( >= lam0n7 0 ) ( >= lam0n8 0 ) ( > ( + ( * 4 lam0n0 ) ( * 1 lam0n1 ) ( * 2 lam0n2 ) ( * 11 lam0n4 ) ( * UndefCntr0_CT lam0n5 ) ( * Nl12CT1 lam0n6 ) ( * Nl12CT2 lam0n7 ) ( * Nl12CT3 lam0n8 ) ( - 1 ) ) 0 ) ( = ( + ( * ( - 1 ) lam0n0 ) ( * ( - 1 ) lam0n2 ) ( * UndefCntr0_arg1 lam0n5 ) ( * Nl12arg11 lam0n6 ) ( * Nl12arg12 lam0n7 ) ( * Nl12arg13 lam0n8 ) ) 0 ) ( = ( + ( * ( - 1 ) lam0n1 ) ( * UndefCntr0_arg2 lam0n5 ) ( * Nl12arg21 lam0n6 ) ( * Nl12arg22 lam0n7 ) ( * Nl12arg23 lam0n8 ) ) 0 ) ( = ( + ( * 1 lam0n2 ) ( * UndefCntr0_arg3 lam0n5 ) ( * Nl12arg31 lam0n6 ) ( * Nl12arg32 lam0n7 ) ( * Nl12arg33 lam0n8 ) ) 0 ) ( = ( + ( * UndefCntr0_arg4 lam0n5 ) ( * Nl12arg41 lam0n6 ) ( * Nl12arg42 lam0n7 ) ( * Nl12arg43 lam0n8 ) ) 0 ) ( = ( + ( * UndefCntr0_arg5 lam0n5 ) ( * Nl12arg51 lam0n6 ) ( * Nl12arg52 lam0n7 ) ( * Nl12arg53 lam0n8 ) ) 0 ) ( = ( + ( * ( - 1 ) lam0n4 ) ( * UndefCntr0_undef115 lam0n5 ) ) 0 ) ( = ( + ( * ( - 1 ) lam0n3 ) ( * UndefCntr0_undef116 lam0n5 ) ) 0 ) ( = ( * UndefCntr0_undef117 lam0n5 ) 0 ) ( = ( * UndefCntr0_undef118 lam0n5 ) 0 ) ( = ( * UndefCntr0_undef119 lam0n5 ) 0 ) ) ( and ( >= lam2n0 0 ) ( >= lam2n1 0 ) ( >= lam2n2 0 ) ( >= lam2n3 0 ) ( >= lam2n4 0 ) ( >= lam2n5 0 ) ( >= lam2n6 0 ) ( >= lam2n7 0 ) ( >= lam2n8 0 ) ( > ( + ( * 4 lam2n0 ) ( * 1 lam2n1 ) ( * 2 lam2n2 ) ( * 11 lam2n4 ) ( * UndefCntr0_CT lam2n5 ) ( * Nl12CT1 lam2n6 ) ( * Nl12CT2 lam2n7 ) ( * Nl12CT3 lam2n8 ) ( - 1 ( + ( + ( + ( + ( + Nl12CT2 ( * Nl12arg12 0 ) ) ( * Nl12arg22 0 ) ) ( * Nl12arg32 0 ) ) ( * Nl12arg42 0 ) ) ( * Nl12arg52 0 ) ) ) ) 0 ) ( = ( + ( * ( - 1 ) lam2n0 ) ( * ( - 1 ) lam2n2 ) ( * UndefCntr0_arg1 lam2n5 ) ( * Nl12arg11 lam2n6 ) ( * Nl12arg12 lam2n7 ) ( * Nl12arg13 lam2n8 ) ) 0 ) ( = ( + ( * ( - 1 ) lam2n1 ) ( * UndefCntr0_arg2 lam2n5 ) ( * Nl12arg21 lam2n6 ) ( * Nl12arg22 lam2n7 ) ( * Nl12arg23 lam2n8 ) ) 0 ) ( = ( + ( * 1 lam2n2 ) ( * UndefCntr0_arg3 lam2n5 ) ( * Nl12arg31 lam2n6 ) ( * Nl12arg32 lam2n7 ) ( * Nl12arg33 lam2n8 ) ) 0 ) ( = ( + ( * UndefCntr0_arg4 lam2n5 ) ( * Nl12arg41 lam2n6 ) ( * Nl12arg42 lam2n7 ) ( * Nl12arg43 lam2n8 ) ) 0 ) ( = ( + ( * UndefCntr0_arg5 lam2n5 ) ( * Nl12arg51 lam2n6 ) ( * Nl12arg52 lam2n7 ) ( * Nl12arg53 lam2n8 ) ) 0 ) ( = ( + ( * ( - 1 ) lam2n4 ) ( * UndefCntr0_undef115 lam2n5 ) ( - ( + 0 ( * Nl12arg12 1 ) ) ) ) 0 ) ( = ( + ( * ( - 1 ) lam2n3 ) ( * UndefCntr0_undef116 lam2n5 ) ( - ( + 0 ( * Nl12arg22 1 ) ) ) ) 0 ) ( = ( + ( * UndefCntr0_undef117 lam2n5 ) ( - ( + 0 ( * Nl12arg32 1 ) ) ) ) 0 ) ( = ( + ( * UndefCntr0_undef118 lam2n5 ) ( - ( + 0 ( * Nl12arg42 1 ) ) ) ) 0 ) ( = ( + ( * UndefCntr0_undef119 lam2n5 ) ( - ( + 0 ( * Nl12arg52 1 ) ) ) ) 0 ) ) ))
(assert ( or ( and ( >= lam0n0 0 ) ( >= lam0n1 0 ) ( >= lam0n2 0 ) ( >= lam0n3 0 ) ( >= lam0n4 0 ) ( >= lam0n5 0 ) ( >= lam0n6 0 ) ( >= lam0n7 0 ) ( >= lam0n8 0 ) ( > ( + ( * 4 lam0n0 ) ( * 1 lam0n1 ) ( * 2 lam0n2 ) ( * 11 lam0n4 ) ( * UndefCntr0_CT lam0n5 ) ( * Nl12CT1 lam0n6 ) ( * Nl12CT2 lam0n7 ) ( * Nl12CT3 lam0n8 ) ( - 1 ) ) 0 ) ( = ( + ( * ( - 1 ) lam0n0 ) ( * ( - 1 ) lam0n2 ) ( * UndefCntr0_arg1 lam0n5 ) ( * Nl12arg11 lam0n6 ) ( * Nl12arg12 lam0n7 ) ( * Nl12arg13 lam0n8 ) ) 0 ) ( = ( + ( * ( - 1 ) lam0n1 ) ( * UndefCntr0_arg2 lam0n5 ) ( * Nl12arg21 lam0n6 ) ( * Nl12arg22 lam0n7 ) ( * Nl12arg23 lam0n8 ) ) 0 ) ( = ( + ( * 1 lam0n2 ) ( * UndefCntr0_arg3 lam0n5 ) ( * Nl12arg31 lam0n6 ) ( * Nl12arg32 lam0n7 ) ( * Nl12arg33 lam0n8 ) ) 0 ) ( = ( + ( * UndefCntr0_arg4 lam0n5 ) ( * Nl12arg41 lam0n6 ) ( * Nl12arg42 lam0n7 ) ( * Nl12arg43 lam0n8 ) ) 0 ) ( = ( + ( * UndefCntr0_arg5 lam0n5 ) ( * Nl12arg51 lam0n6 ) ( * Nl12arg52 lam0n7 ) ( * Nl12arg53 lam0n8 ) ) 0 ) ( = ( + ( * ( - 1 ) lam0n4 ) ( * UndefCntr0_undef115 lam0n5 ) ) 0 ) ( = ( + ( * ( - 1 ) lam0n3 ) ( * UndefCntr0_undef116 lam0n5 ) ) 0 ) ( = ( * UndefCntr0_undef117 lam0n5 ) 0 ) ( = ( * UndefCntr0_undef118 lam0n5 ) 0 ) ( = ( * UndefCntr0_undef119 lam0n5 ) 0 ) ) ( and ( >= lam3n0 0 ) ( >= lam3n1 0 ) ( >= lam3n2 0 ) ( >= lam3n3 0 ) ( >= lam3n4 0 ) ( >= lam3n5 0 ) ( >= lam3n6 0 ) ( >= lam3n7 0 ) ( >= lam3n8 0 ) ( > ( + ( * 4 lam3n0 ) ( * 1 lam3n1 ) ( * 2 lam3n2 ) ( * 11 lam3n4 ) ( * UndefCntr0_CT lam3n5 ) ( * Nl12CT1 lam3n6 ) ( * Nl12CT2 lam3n7 ) ( * Nl12CT3 lam3n8 ) ( - 1 ( + ( + ( + ( + ( + Nl12CT3 ( * Nl12arg13 0 ) ) ( * Nl12arg23 0 ) ) ( * Nl12arg33 0 ) ) ( * Nl12arg43 0 ) ) ( * Nl12arg53 0 ) ) ) ) 0 ) ( = ( + ( * ( - 1 ) lam3n0 ) ( * ( - 1 ) lam3n2 ) ( * UndefCntr0_arg1 lam3n5 ) ( * Nl12arg11 lam3n6 ) ( * Nl12arg12 lam3n7 ) ( * Nl12arg13 lam3n8 ) ) 0 ) ( = ( + ( * ( - 1 ) lam3n1 ) ( * UndefCntr0_arg2 lam3n5 ) ( * Nl12arg21 lam3n6 ) ( * Nl12arg22 lam3n7 ) ( * Nl12arg23 lam3n8 ) ) 0 ) ( = ( + ( * 1 lam3n2 ) ( * UndefCntr0_arg3 lam3n5 ) ( * Nl12arg31 lam3n6 ) ( * Nl12arg32 lam3n7 ) ( * Nl12arg33 lam3n8 ) ) 0 ) ( = ( + ( * UndefCntr0_arg4 lam3n5 ) ( * Nl12arg41 lam3n6 ) ( * Nl12arg42 lam3n7 ) ( * Nl12arg43 lam3n8 ) ) 0 ) ( = ( + ( * UndefCntr0_arg5 lam3n5 ) ( * Nl12arg51 lam3n6 ) ( * Nl12arg52 lam3n7 ) ( * Nl12arg53 lam3n8 ) ) 0 ) ( = ( + ( * ( - 1 ) lam3n4 ) ( * UndefCntr0_undef115 lam3n5 ) ( - ( + 0 ( * Nl12arg13 1 ) ) ) ) 0 ) ( = ( + ( * ( - 1 ) lam3n3 ) ( * UndefCntr0_undef116 lam3n5 ) ( - ( + 0 ( * Nl12arg23 1 ) ) ) ) 0 ) ( = ( + ( * UndefCntr0_undef117 lam3n5 ) ( - ( + 0 ( * Nl12arg33 1 ) ) ) ) 0 ) ( = ( + ( * UndefCntr0_undef118 lam3n5 ) ( - ( + 0 ( * Nl12arg43 1 ) ) ) ) 0 ) ( = ( + ( * UndefCntr0_undef119 lam3n5 ) ( - ( + 0 ( * Nl12arg53 1 ) ) ) ) 0 ) ) ))
(assert ( and ( <= ( + Nl12CT1 ( * Nl12arg11 FV_arg1_1 ) ( * Nl12arg21 FV_arg2_1 ) ( * Nl12arg31 FV_arg3_1 ) ( * Nl12arg41 FV_arg4_1 ) ( * Nl12arg51 FV_arg5_1 ) ) 0 ) ( <= ( + Nl12CT2 ( * Nl12arg12 FV_arg1_1 ) ( * Nl12arg22 FV_arg2_1 ) ( * Nl12arg32 FV_arg3_1 ) ( * Nl12arg42 FV_arg4_1 ) ( * Nl12arg52 FV_arg5_1 ) ) 0 ) ( <= ( + Nl12CT3 ( * Nl12arg13 FV_arg1_1 ) ( * Nl12arg23 FV_arg2_1 ) ( * Nl12arg33 FV_arg3_1 ) ( * Nl12arg43 FV_arg4_1 ) ( * Nl12arg53 FV_arg5_1 ) ) 0 ) ( <= ( + 4 ( * ( - 1 ) FV_arg1_1 ) ) 0 ) ))
(assert ( or ( not ( = UndefCntr0_arg1 0 ) ) ( not ( = UndefCntr0_arg2 0 ) ) ( not ( = UndefCntr0_arg3 0 ) ) ( not ( = UndefCntr0_arg4 0 ) ) ( not ( = UndefCntr0_arg5 0 ) ) ( not ( = UndefCntr0_undef115 0 ) ) ( not ( = UndefCntr0_undef116 0 ) ) ( not ( = UndefCntr0_undef117 0 ) ) ( not ( = UndefCntr0_undef118 0 ) ) ( not ( = UndefCntr0_undef119 0 ) ) ( = UndefCntr0_CT 0 ) ))
(assert ( or ( and ( = UndefCntr0_arg1 0 ) ( = UndefCntr0_arg2 0 ) ( = UndefCntr0_arg3 0 ) ( = UndefCntr0_arg4 0 ) ( = UndefCntr0_arg5 0 ) ) ( or ( not ( = UndefCntr0_undef115 0 ) ) ( not ( = UndefCntr0_undef116 0 ) ) ( not ( = UndefCntr0_undef117 0 ) ) ( not ( = UndefCntr0_undef118 0 ) ) ( not ( = UndefCntr0_undef119 0 ) ) ) ))
(assert ( or ( = UndefCntr0_undef115 0 ) ( and ( and ( = UndefCntr0_arg1 0 ) ( = UndefCntr0_arg2 0 ) ( = UndefCntr0_arg3 0 ) ( = UndefCntr0_arg4 0 ) ( = UndefCntr0_arg5 0 ) ( = UndefCntr0_undef117 0 ) ( = UndefCntr0_undef118 0 ) ( = UndefCntr0_undef119 0 ) ( = UndefCntr0_undef116 0 ) ) ( or ( and ( <= ( + 11 ( * ( - 1 ) FV_undef115_0 ) ) 0 ) ( <= ( + UndefCntr0_CT ( * UndefCntr0_undef115 FV_undef115_0 ) ( * UndefCntr0_undef116 FV_undef116_0 ) ( * UndefCntr0_arg1 FV_arg1_0 ) ( * UndefCntr0_arg2 FV_arg2_0 ) ( * UndefCntr0_arg3 FV_arg3_0 ) ( * UndefCntr0_arg4 FV_arg4_0 ) ( * UndefCntr0_arg5 FV_arg5_0 ) ( * UndefCntr0_undef117 FV_undef117_0 ) ( * UndefCntr0_undef118 FV_undef118_0 ) ( * UndefCntr0_undef119 FV_undef119_0 ) ) 0 ) ) ( and ( <= ( + 11 ( * ( - 1 ) FV_undef115_0 ) ) 0 ) ( <= ( + UndefCntr0_CT ( * UndefCntr0_undef115 FV_undef115_0 ) ( * UndefCntr0_undef116 FV_undef116_0 ) ( * UndefCntr0_arg1 FV_arg1_0 ) ( * UndefCntr0_arg2 FV_arg2_0 ) ( * UndefCntr0_arg3 FV_arg3_0 ) ( * UndefCntr0_arg4 FV_arg4_0 ) ( * UndefCntr0_arg5 FV_arg5_0 ) ( * UndefCntr0_undef117 FV_undef117_0 ) ( * UndefCntr0_undef118 FV_undef118_0 ) ( * UndefCntr0_undef119 FV_undef119_0 ) ) 0 ) ) ) ) ))
(assert ( or ( = UndefCntr0_undef116 0 ) ( and ( and ( = UndefCntr0_arg1 0 ) ( = UndefCntr0_arg2 0 ) ( = UndefCntr0_arg3 0 ) ( = UndefCntr0_arg4 0 ) ( = UndefCntr0_arg5 0 ) ( = UndefCntr0_undef117 0 ) ( = UndefCntr0_undef118 0 ) ( = UndefCntr0_undef119 0 ) ( = UndefCntr0_undef115 0 ) ) ( or ( and ( <= ( * ( - 1 ) FV_undef116_0 ) 0 ) ( <= ( + UndefCntr0_CT ( * UndefCntr0_undef115 FV_undef115_0 ) ( * UndefCntr0_undef116 FV_undef116_0 ) ( * UndefCntr0_arg1 FV_arg1_0 ) ( * UndefCntr0_arg2 FV_arg2_0 ) ( * UndefCntr0_arg3 FV_arg3_0 ) ( * UndefCntr0_arg4 FV_arg4_0 ) ( * UndefCntr0_arg5 FV_arg5_0 ) ( * UndefCntr0_undef117 FV_undef117_0 ) ( * UndefCntr0_undef118 FV_undef118_0 ) ( * UndefCntr0_undef119 FV_undef119_0 ) ) 0 ) ) ( and ( <= ( * ( - 1 ) FV_undef116_0 ) 0 ) ( <= ( + UndefCntr0_CT ( * UndefCntr0_undef115 FV_undef115_0 ) ( * UndefCntr0_undef116 FV_undef116_0 ) ( * UndefCntr0_arg1 FV_arg1_0 ) ( * UndefCntr0_arg2 FV_arg2_0 ) ( * UndefCntr0_arg3 FV_arg3_0 ) ( * UndefCntr0_arg4 FV_arg4_0 ) ( * UndefCntr0_arg5 FV_arg5_0 ) ( * UndefCntr0_undef117 FV_undef117_0 ) ( * UndefCntr0_undef118 FV_undef118_0 ) ( * UndefCntr0_undef119 FV_undef119_0 ) ) 0 ) ) ) ) ))
(assert ( or ( and ( >= lam19n0 0 ) ( >= lam19n1 0 ) ( >= lam19n2 0 ) ( >= lam19n3 0 ) ( >= lam19n4 0 ) ( >= lam19n5 0 ) ( > ( + ( * 4 lam19n0 ) ( * 1 lam19n1 ) ( * ( - 1 ) lam19n2 ) ( * Nl12CT1 lam19n3 ) ( * Nl12CT2 lam19n4 ) ( * Nl12CT3 lam19n5 ) ( - 1 ) ) 0 ) ( = ( + ( * ( - 1 ) lam19n0 ) ( * 1 lam19n2 ) ( * Nl12arg11 lam19n3 ) ( * Nl12arg12 lam19n4 ) ( * Nl12arg13 lam19n5 ) ) 0 ) ( = ( + ( * ( - 1 ) lam19n1 ) ( * Nl12arg21 lam19n3 ) ( * Nl12arg22 lam19n4 ) ( * Nl12arg23 lam19n5 ) ) 0 ) ( = ( + ( * ( - 1 ) lam19n2 ) ( * Nl12arg31 lam19n3 ) ( * Nl12arg32 lam19n4 ) ( * Nl12arg33 lam19n5 ) ) 0 ) ( = ( + ( * Nl12arg41 lam19n3 ) ( * Nl12arg42 lam19n4 ) ( * Nl12arg43 lam19n5 ) ) 0 ) ( = ( + ( * Nl12arg51 lam19n3 ) ( * Nl12arg52 lam19n4 ) ( * Nl12arg53 lam19n5 ) ) 0 ) ) ( and ( >= lam20n0 0 ) ( >= lam20n1 0 ) ( >= lam20n2 0 ) ( >= lam20n3 0 ) ( >= lam20n4 0 ) ( > ( + ( * 4 lam20n0 ) ( * Nl12CT1 lam20n2 ) ( * Nl12CT2 lam20n3 ) ( * Nl12CT3 lam20n4 ) ( - 1 ) ) 0 ) ( = ( + ( * ( - 1 ) lam20n0 ) ( * Nl12arg11 lam20n2 ) ( * Nl12arg12 lam20n3 ) ( * Nl12arg13 lam20n4 ) ) 0 ) ( = ( + ( * 1 lam20n1 ) ( * Nl12arg21 lam20n2 ) ( * Nl12arg22 lam20n3 ) ( * Nl12arg23 lam20n4 ) ) 0 ) ( = ( + ( * Nl12arg31 lam20n2 ) ( * Nl12arg32 lam20n3 ) ( * Nl12arg33 lam20n4 ) ) 0 ) ( = ( + ( * Nl12arg41 lam20n2 ) ( * Nl12arg42 lam20n3 ) ( * Nl12arg43 lam20n4 ) ) 0 ) ( = ( + ( * Nl12arg51 lam20n2 ) ( * Nl12arg52 lam20n3 ) ( * Nl12arg53 lam20n4 ) ) 0 ) ) ))
(assert ( and ( and ( <= ( + Nl12CT1 ( * Nl12arg11 FV_arg1_2 ) ( * Nl12arg21 FV_arg2_2 ) ( * Nl12arg31 FV_arg3_2 ) ( * Nl12arg41 FV_arg4_2 ) ( * Nl12arg51 FV_arg5_2 ) ) 0 ) ( <= ( + Nl12CT2 ( * Nl12arg12 FV_arg1_2 ) ( * Nl12arg22 FV_arg2_2 ) ( * Nl12arg32 FV_arg3_2 ) ( * Nl12arg42 FV_arg4_2 ) ( * Nl12arg52 FV_arg5_2 ) ) 0 ) ( <= ( + Nl12CT3 ( * Nl12arg13 FV_arg1_2 ) ( * Nl12arg23 FV_arg2_2 ) ( * Nl12arg33 FV_arg3_2 ) ( * Nl12arg43 FV_arg4_2 ) ( * Nl12arg53 FV_arg5_2 ) ) 0 ) ) ( and ( <= ( + 4 ( * ( - 1 ) FV_arg1_2 ) ) 0 ) ( <= ( + 1 ( * ( - 1 ) FV_arg2_2 ) ) 0 ) ( <= ( + 2 ( * ( - 1 ) FV_arg1_2 ) FV_arg3_2 ) 0 ) ( <= ( * ( - 1 ) FV_undef116_2 ) 0 ) ( <= ( + 11 ( * ( - 1 ) FV_undef115_2 ) ) 0 ) ) ))
(check-sat)
(exit)
